     Program PHONON v.5.1.2 starts on 19Nov2015 at 14:37:51

     Reading data from directory:
     /home/users/zhennighausen/Computational_Klasse/Si-Grosser/pwscf.save

   Info: using nr1, nr2, nr3 values from input

   Info: using nr1s, nr2s, nr3s values from input

     IMPORTANT: XC functional enforced from input :
     Exchange-correlation      =  SLA  PW   PBX  PBC ( 1  4  3  4 0 0)
     Any further DFT definition will be discarded
     Please, verify this is what you really want

               file Si.pbe-n-kjpaw_psl.0.1.UPF: wavefunction(s)  3S renormalized

     Check: negative/imaginary core charge=   -0.000004    0.000000

     Dynamical matrices for ( 6, 6, 6)  uniform grid of q-points
     (  16q-points):
       N         xq(1)         xq(2)         xq(3)
       1   0.000000000   0.000000000   0.000000000
       2  -0.166666667   0.166666667  -0.166666667
       3  -0.333333333   0.333333333  -0.333333333
       4   0.500000000  -0.500000000   0.500000000
       5   0.000000000   0.333333333   0.000000000
       6  -0.166666667   0.500000000  -0.166666667
       7   0.666666667  -0.333333333   0.666666667
       8   0.500000000  -0.166666667   0.500000000
       9   0.333333333   0.000000000   0.333333333
      10   0.000000000   0.666666667   0.000000000
      11   0.833333333  -0.166666667   0.833333333
      12   0.666666667  -0.000000000   0.666666667
      13   0.000000000  -1.000000000   0.000000000
      14   0.666666667  -0.333333333   1.000000000
      15   0.500000000  -0.166666667   0.833333333
      16  -0.333333333  -1.000000000   0.000000000

     Calculation of q =    0.0000000   0.0000000   0.0000000

     bravais-lattice index     =            2
     lattice parameter (alat)  =      10.2600  a.u.
     unit-cell volume          =     270.0114 (a.u.)^3
     number of atoms/cell      =            2
     number of atomic types    =            1
     kinetic-energy cut-off    =      30.0000  Ry
     charge density cut-off    =     120.0000  Ry
     convergence threshold     =      1.0E-12
     beta                      =       0.7000
     number of iterations used =            4
     Exchange-correlation      =  SLA  PW   PBX  PBC ( 1  4  3  4 0 0)

     celldm(1)=   10.26000  celldm(2)=    0.00000  celldm(3)=    0.00000
     celldm(4)=    0.00000  celldm(5)=    0.00000  celldm(6)=    0.00000

     crystal axes: (cart. coord. in units of alat)
               a(1) = ( -0.5000  0.0000  0.5000 )
               a(2) = (  0.0000  0.5000  0.5000 )
               a(3) = ( -0.5000  0.5000  0.0000 )

     reciprocal axes: (cart. coord. in units 2 pi/alat)
               b(1) = ( -1.0000 -1.0000  1.0000 )
               b(2) = (  1.0000  1.0000  1.0000 )
               b(3) = ( -1.0000  1.0000 -1.0000 )

     Atoms inside the unit cell:

     Cartesian axes

     site n.  atom      mass           positions (alat units)
        1     Si1 28.0855   tau(    1) = (    0.00000    0.00000    0.00000  )
        2     Si1 28.0855   tau(    2) = (    0.25000    0.25000    0.25000  )

     Computing dynamical matrix for
                    q = (   0.0000000   0.0000000   0.0000000 )

     25 Sym.Ops. (with q -> -q+G )

     G cutoff =  319.9751  (   1491 G-vectors)     FFT grid: ( 25, 25, 25)
     number of k points=    60

     PseudoPot. # 1 for Si read from file:
     /home/users/zhennighausen/pslibrary.1.0.0/folder/Si.pbe-n-kjpaw_psl.0.1.UPF
     MD5 check sum: b9d333a40e496bef61db012f150758bf
     Pseudo is Projector augmented-wave + core cor, Zval =  4.0
     Generated using "atomic" code by A. Dal Corso  v.5.0.2 svn rev. 9415
     Shape of augmentation charge: PSQ
     Using radial grid of 1141 points,  4 beta functions with:
                l(1) =   0
                l(2) =   0
                l(3) =   1
                l(4) =   1
     Q(r) pseudized with 0 coefficients

     Mode symmetry, T_d (-43m)  point group:

     Electric field:
     Dielectric constant
     Born effective charges in two ways

     Atomic displacements:
     There are   2 irreducible representations

     Representation     1      3 modes -T_2  G_15 P_4  To be done

[...]

     Alpha used in Ewald sum =   1.3000

     Electric Fields Calculation

      thresh= 1.000E-02 alpha_mix =  0.700 |ddv_scf|^2 =  3.574E-07

[...]

     End of electric fields calculation

          Dielectric constant in cartesian axis

          (      12.934161062      -0.000000000      -0.000000000 )
          (      -0.000000000      12.934161062      -0.000000000 )
          (      -0.000000000      -0.000000000      12.934161062 )

          Effective charges (d Force / dE) in cartesian axis

           atom      1   Si1
      Ex  (        0.01684        0.00000        0.00000 )
      Ey  (        0.00000        0.01684       -0.00000 )
      Ez  (        0.00000       -0.00000        0.01684 )
           atom      2   Si1
      Ex  (        0.01742       -0.00000        0.00000 )
      Ey  (        0.00000        0.01742       -0.00000 )
      Ez  (       -0.00000       -0.00000        0.01742 )

     Representation #  1 modes #   1  2  3

     Self-consistent Calculation

[...]

     End of self-consistent calculation

     Convergence has been achieved

[...]

     Number of q in the star =    1
     List of q in the star:
          1   0.000000000   0.000000000   0.000000000

          Dielectric constant in cartesian axis

          (      12.934161062      -0.000000000      -0.000000000 )
          (      -0.000000000      12.934161062      -0.000000000 )
          (      -0.000000000      -0.000000000      12.934161062 )

          Effective charges (d Force / dE) in cartesian axis

[...]

          Effective charges (d P / du) in cartesian axis

           atom      1   Si1
      Px  (       -0.00704        0.00000       -0.00000 )
      Py  (        0.00000       -0.00704       -0.00000 )
      Pz  (        0.00000       -0.00000       -0.00704 )
           atom      2   Si1
      Px  (       -0.00219        0.00000        0.00000 )
      Py  (        0.00000       -0.00219        0.00000 )
      Pz  (        0.00000        0.00000       -0.00219 )

     Diagonalizing the dynamical matrix

     q = (    0.000000000   0.000000000   0.000000000 )

     freq (    1) =      -1.562947 [THz] =     -52.134289 [cm-1]
     freq (    2) =      -1.562947 [THz] =     -52.134289 [cm-1]
     freq (    3) =      -1.562947 [THz] =     -52.134289 [cm-1]
     freq (    4) =      15.303997 [THz] =     510.486399 [cm-1]
     freq (    5) =      15.303997 [THz] =     510.486399 [cm-1]
     freq (    6) =      15.303997 [THz] =     510.486399 [cm-1]

     Mode symmetry, T_d (-43m)  point group:

     freq (  1 -  3) =        -52.1  [cm-1]   --> T_2  G_15 P_4   I+R
     freq (  4 -  6) =        510.5  [cm-1]   --> T_2  G_15 P_4   I+R

[...]

     bravais-lattice index     =            2
     lattice parameter (alat)  =      10.2600  a.u.
     unit-cell volume          =     270.0114 (a.u.)^3
     number of atoms/cell      =            2
     number of atomic types    =            1
     number of electrons       =         8.00
     number of Kohn-Sham states=            4
     kinetic-energy cutoff     =      30.0000  Ry
     charge density cutoff     =     120.0000  Ry
     Exchange-correlation      =  SLA  PW   PBX  PBC ( 1  4  3  4 0 0)

[...]

     atomic species   valence    mass     pseudopotential
        Si1            4.00    28.08550     Si( 1.00)

     24 Sym. Ops. (no inversion) found

[...]

     site n.     atom                  positions (alat units)
         1           Si1 tau(   1) = (   0.0000000   0.0000000   0.0000000  )
         2           Si1 tau(   2) = (   0.2500000   0.2500000   0.2500000  )

     number of k points=   816

     Number of k-points >= 100: set verbosity='high' to print them.

     Largest allocated arrays     est. size (Mb)     dimensions
     Largest temporary arrays     est. size (Mb)     dimensions

[...]

     The potential is recalculated from file :
     /home/users/zhennighausen/Computational_Klasse/Si-Grosser/_ph0/pwscf.save/charge-density.dat

     Starting wfc are    8 atomic wfcs
     Checking if some PAW data can be deallocated...

     Band Structure Calculation
     Davidson diagonalization with overlap

     ethr =  1.25E-10,  avg # of iterations = 12.5

     End of band structure calculation

     Number of k-points >= 100: set verbosity='high' to print the bands.

     highest occupied level (ev):     6.2074

     Writing output data file pwscf.save

[...]

      6 Sym.Ops. (no q -> -q+G )

[...]

     Mode symmetry, C_3v (3m)   point group:

[...]

     Representation     1      1 modes -A_1  L_1  To be done

[...]

     Representation     3      2 modes -E    L_3  To be done

[...]

     Representation #  1 mode #   1

[...]

     Number of q in the star =    4
     List of q in the star:
          1  -0.166666667   0.166666667  -0.166666667
          2   0.166666667  -0.166666667  -0.166666667
          3  -0.166666667  -0.166666667   0.166666667
          4   0.166666667   0.166666667   0.166666667
     In addition there is the -q list:
          1   0.166666667  -0.166666667   0.166666667
          2  -0.166666667   0.166666667   0.166666667
          3   0.166666667   0.166666667  -0.166666667
          4  -0.166666667  -0.166666667  -0.166666667

[...]

     freq (  1 -  2) =         54.0  [cm-1]   --> E    L_3
     freq (  3 -  3) =        150.9  [cm-1]   --> A_1  L_1
     freq (  4 -  4) =        497.6  [cm-1]   --> A_1  L_1
     freq (  5 -  6) =        498.8  [cm-1]   --> E    L_3

[...]

     Representation     2      1 modes -A_1  L_1  To be done

[...]

     Representation     4      2 modes -E    L_3  To be done

[...]

     Mode symmetry, C_3v (3m)   point group:

     freq (  1 -  2) =         94.9  [cm-1]   --> E    L_3
     freq (  3 -  3) =        369.4  [cm-1]   --> A_1  L_1
     freq (  4 -  4) =        410.2  [cm-1]   --> A_1  L_1
     freq (  5 -  6) =        486.3  [cm-1]   --> E    L_3

[...]

     Mode symmetry, C_2v (mm2)  point group:

[...]

     freq (  1 -  1) =         85.3  [cm-1]   --> B_1  D_3  S_3
     freq (  2 -  2) =         85.3  [cm-1]   --> B_2  D_4  S_4
     freq (  3 -  3) =        157.3  [cm-1]   --> A_1  D_1  S_1
     freq (  4 -  4) =        485.7  [cm-1]   --> B_1  D_3  S_3
     freq (  5 -  5) =        485.7  [cm-1]   --> B_2  D_4  S_4
     freq (  6 -  6) =        501.5  [cm-1]   --> A_1  D_1  S_1

[...]

     Mode symmetry, C_s (m)     point group:

[...]

     Representation     1      1 modes -A'  To be done

[...]

     Representation     5      1 modes -A''  To be done

[...]

     freq (  1 -  1) =        110.6  [cm-1]   --> A''
     freq (  2 -  2) =        141.2  [cm-1]   --> A'
     freq (  3 -  3) =        245.2  [cm-1]   --> A'
     freq (  4 -  4) =        459.1  [cm-1]   --> A'
     freq (  5 -  5) =        474.5  [cm-1]   --> A''
     freq (  6 -  6) =        485.0  [cm-1]   --> A'

[...]

     Mode symmetry, C_2v (mm2)  point group:

     freq (  1 -  1) =        127.8  [cm-1]   --> B_1  D_3  S_3
     freq (  2 -  2) =        127.8  [cm-1]   --> B_2  D_4  S_4
     freq (  3 -  3) =        302.8  [cm-1]   --> A_1  D_1  S_1
     freq (  4 -  4) =        462.5  [cm-1]   --> B_1  D_3  S_3
     freq (  5 -  5) =        462.5  [cm-1]   --> B_2  D_4  S_4
     freq (  6 -  6) =        469.6  [cm-1]   --> A_1  D_1  S_1

[...]

     Number of q in the star =   12
     List of q in the star:
          1   0.833333333  -0.166666667   0.833333333
          2  -0.833333333  -0.166666667  -0.833333333
          3   0.166666667  -0.833333333   0.833333333
          4  -0.833333333   0.166666667   0.833333333
          5   0.833333333   0.166666667  -0.833333333
          6   0.833333333   0.833333333  -0.166666667
          7   0.833333333  -0.833333333   0.166666667
          8  -0.833333333  -0.833333333  -0.166666667
          9  -0.833333333   0.833333333   0.166666667
         10  -0.166666667   0.833333333   0.833333333
         11   0.166666667   0.833333333  -0.833333333
         12  -0.166666667  -0.833333333  -0.833333333
     In addition there is the -q list:
          1  -0.833333333   0.166666667  -0.833333333
          2   0.833333333   0.166666667   0.833333333
          3  -0.166666667   0.833333333  -0.833333333
          4   0.833333333  -0.166666667  -0.833333333
          5  -0.833333333  -0.166666667   0.833333333
          6  -0.833333333  -0.833333333   0.166666667
          7  -0.833333333   0.833333333  -0.166666667
          8   0.833333333   0.833333333   0.166666667
          9   0.833333333  -0.833333333  -0.166666667
         10   0.166666667  -0.833333333  -0.833333333
         11  -0.166666667  -0.833333333   0.833333333
         12   0.166666667   0.833333333   0.833333333

[...]

     Representation     4      1 modes -A'  To be done

[...]

     Representation     6      1 modes -A''  To be done

[...]

     Mode symmetry, C_s (m)     point group:

     freq (  1 -  1) =        134.7  [cm-1]   --> A''
     freq (  2 -  2) =        209.2  [cm-1]   --> A'
     freq (  3 -  3) =        334.4  [cm-1]   --> A'
     freq (  4 -  4) =        375.5  [cm-1]   --> A'
     freq (  5 -  5) =        461.5  [cm-1]   --> A''
     freq (  6 -  6) =        480.1  [cm-1]   --> A'

[...]

      9 Sym.Ops. (with q -> -q+G )

[...]

     Mode symmetry, D_2d (-42m) point group:

[...]

     Representation     2      1 modes -B_2  X_3  W_2  To be done

     Representation     3      2 modes -E    X_5  W_3  To be done

     Representation     4      2 modes -E    X_5  W_3  To be done

[...]

     Representation #  4 modes #   5  6

[...]

     Mode symmetry, D_2d (-42m) point group:

     freq (  1 -  2) =        131.3  [cm-1]   --> E    X_5  W_3
     freq (  3 -  3) =        404.3  [cm-1]   --> B_2  X_3  W_2
     freq (  4 -  4) =        407.1  [cm-1]   --> A_1  X_1  W_1
     freq (  5 -  6) =        457.9  [cm-1]   --> E    X_5  W_3

[...]

     No symmetry!

[...]

     Mode symmetry, C_1 (1)     point group:

[...]

     Representation     1      1 modes -A  To be done

[...]

     freq (  1 -  1) =        152.0  [cm-1]   --> A
     freq (  2 -  2) =        172.7  [cm-1]   --> A
     freq (  3 -  3) =        286.7  [cm-1]   --> A
     freq (  4 -  4) =        419.1  [cm-1]   --> A
     freq (  5 -  5) =        468.9  [cm-1]   --> A
     freq (  6 -  6) =        471.7  [cm-1]   --> A

[...]

     No symmetry!

[...]

     Calculation of q =   -0.3333333  -1.0000000   0.0000000

     bravais-lattice index     =            2
     lattice parameter (alat)  =      10.2600  a.u.
     unit-cell volume          =     270.0114 (a.u.)^3
     number of atoms/cell      =            2
     number of atomic types    =            1
     number of electrons       =         8.00
     number of Kohn-Sham states=            4
     kinetic-energy cutoff     =      30.0000  Ry
     charge density cutoff     =     120.0000  Ry
     Exchange-correlation      =  SLA  PW   PBX  PBC ( 1  4  3  4 0 0)

[...]

     atomic species   valence    mass     pseudopotential
        Si1            4.00    28.08550     Si( 1.00)

     24 Sym. Ops. (no inversion) found

[...]

     site n.     atom                  positions (alat units)
         1           Si1 tau(   1) = (   0.0000000   0.0000000   0.0000000  )
         2           Si1 tau(   2) = (   0.2500000   0.2500000   0.2500000  )

     number of k points=  2048

     Number of k-points >= 100: set verbosity='high' to print them.

     Largest allocated arrays     est. size (Mb)     dimensions
     Largest temporary arrays     est. size (Mb)     dimensions

     Check: negative/imaginary core charge=   -0.000004    0.000000

     The potential is recalculated from file :
     /home/users/zhennighausen/Computational_Klasse/Si-Grosser/_ph0/pwscf.save/charge-density.dat

     Starting wfc are    8 atomic wfcs
     Checking if some PAW data can be deallocated...

     Band Structure Calculation
     Davidson diagonalization with overlap

     ethr =  1.25E-10,  avg # of iterations = 12.5

     End of band structure calculation

     Number of k-points >= 100: set verbosity='high' to print the bands.

     highest occupied level (ev):     6.1942

     Writing output data file pwscf.save

     bravais-lattice index     =            2
     lattice parameter (alat)  =      10.2600  a.u.
     unit-cell volume          =     270.0114 (a.u.)^3
     number of atoms/cell      =            2
     number of atomic types    =            1
     kinetic-energy cut-off    =      30.0000  Ry
     charge density cut-off    =     120.0000  Ry
     convergence threshold     =      1.0E-12
     beta                      =       0.7000
     number of iterations used =            4
     Exchange-correlation      =  SLA  PW   PBX  PBC ( 1  4  3  4 0 0)

     celldm(1)=   10.26000  celldm(2)=    0.00000  celldm(3)=    0.00000
     celldm(4)=    0.00000  celldm(5)=    0.00000  celldm(6)=    0.00000

     crystal axes: (cart. coord. in units of alat)
               a(1) = ( -0.5000  0.0000  0.5000 )
               a(2) = (  0.0000  0.5000  0.5000 )
               a(3) = ( -0.5000  0.5000  0.0000 )

     reciprocal axes: (cart. coord. in units 2 pi/alat)
               b(1) = ( -1.0000 -1.0000  1.0000 )
               b(2) = (  1.0000  1.0000  1.0000 )
               b(3) = ( -1.0000  1.0000 -1.0000 )

     Atoms inside the unit cell:

     Cartesian axes

     site n.  atom      mass           positions (alat units)
        1     Si1 28.0855   tau(    1) = (    0.00000    0.00000    0.00000  )
        2     Si1 28.0855   tau(    2) = (    0.25000    0.25000    0.25000  )

     Computing dynamical matrix for
                    q = (  -0.3333333  -1.0000000   0.0000000 )

      2 Sym.Ops. (no q -> -q+G )

     G cutoff =  319.9751  (   1491 G-vectors)     FFT grid: ( 25, 25, 25)
     number of k points=  2048

     PseudoPot. # 1 for Si read from file:
     /home/users/zhennighausen/pslibrary.1.0.0/folder/Si.pbe-n-kjpaw_psl.0.1.UPF
     MD5 check sum: b9d333a40e496bef61db012f150758bf
     Pseudo is Projector augmented-wave + core cor, Zval =  4.0
     Generated using "atomic" code by A. Dal Corso  v.5.0.2 svn rev. 9415
     Shape of augmentation charge: PSQ
     Using radial grid of 1141 points,  4 beta functions with:
                l(1) =   0
                l(2) =   0
                l(3) =   1
                l(4) =   1
     Q(r) pseudized with 0 coefficients

[...]

     Atomic displacements:
     There are   6 irreducible representations

[...]

     Representation     6      1 modes -B  To be done

     Alpha used in Ewald sum =   1.3000

[...]

     Representation #  6 mode #   6

     Self-consistent Calculation

[...]

      thresh= 1.008E-07 alpha_mix =  0.700 |ddv_scf|^2 =  7.922E-14

     End of self-consistent calculation

     Convergence has been achieved

     Number of q in the star =   12
     List of q in the star:
          1  -0.333333333  -1.000000000   0.000000000
          2   0.333333333  -1.000000000   0.000000000
          3   0.000000000  -1.000000000   0.333333333
          4   0.000000000   1.000000000  -0.333333333
          5   0.000000000  -0.333333333  -1.000000000
          6   0.000000000   0.333333333   1.000000000
          7  -0.333333333   0.000000000   1.000000000
          8  -1.000000000  -0.333333333   0.000000000
          9  -1.000000000   0.333333333   0.000000000
         10  -1.000000000   0.000000000  -0.333333333
         11  -1.000000000   0.000000000   0.333333333
         12   0.333333333   0.000000000  -1.000000000

     Diagonalizing the dynamical matrix

     q = (   -0.333333333  -1.000000000   0.000000000 )

     freq (    1) =       5.314811 [THz] =     177.283019 [cm-1]
     freq (    2) =       5.330233 [THz] =     177.797444 [cm-1]
     freq (    3) =      10.823858 [THz] =     361.045038 [cm-1]
     freq (    4) =      10.915250 [THz] =     364.093556 [cm-1]
     freq (    5) =      13.881166 [THz] =     463.025873 [cm-1]
     freq (    6) =      13.891155 [THz] =     463.359054 [cm-1]

     Mode symmetry, C_2  (2)    point group:

     freq (  1 -  1) =        177.3  [cm-1]   --> A
     freq (  2 -  2) =        177.8  [cm-1]   --> B
     freq (  3 -  3) =        361.0  [cm-1]   --> B
     freq (  4 -  4) =        364.1  [cm-1]   --> A
     freq (  5 -  5) =        463.0  [cm-1]   --> B
     freq (  6 -  6) =        463.4  [cm-1]   --> A

     General routines

     Parallel routines

     PAW routines

     INITIALIZATION:

     DYNAMICAL MATRIX:

      General routines

   This run was terminated on:  20:15:25  19Nov2015

   JOB DONE.